Route #1: 59 156 115 103 159 147 153 160 85 121 144 119 135 141 72
Route #2: 120 5 16 32 57 131 4 87 101 151 146 39 137 108 92 155
Route #3: 161 77 97 117 27 9 21 60 55 1 14 89 149 17 127
Route #4: 90 145 68 58 38 73 11 48 26 28 150
Route #5: 52 116 111 140 31 106 100 66 56 94 36 35 99 130 86 53
Route #6: 25 47 98 83 104 63 113 70 65 69 46 61 41 76 54
Route #7: 8 42 51 12 64 18 19 3 33 75 44 7 34 22 78
Route #8: 110 128 124 134 148 109 2 82 118 30 40 157 112 132 93 125
Route #9: 79 20 67 62 114 95 129 142 43 123 88 96 102 154 80
Route #10: 29 10 105 126 143 84 122 107 133 138 139 15
Route #11: 50 45 152 23 24 49 6 37 71 13 158 81 74 91 136
